Mo4 
1.0
3.7159552338334314e+00 0.0000000000000000e+00 0.0000000000000000e+00
-3.1421405561351498e-17 3.7159552338334314e+00 0.0000000000000000e+00
-2.1915376755160215e-17 -2.7195203099485669e-17 3.7159552338334314e+00
Mo 
4 
Cartesian
3.7159552338444395e+00 3.7159552338444395e+00 3.7159552338444395e+00
3.7159552338444395e+00 1.8579776169222197e+00 1.8579776169222197e+00
1.8579776169222197e+00 3.7159552338444395e+00 1.8579776169222197e+00
1.8579776169222197e+00 1.8579776169222197e+00 3.7159552338444395e+00
