Mo4 
1.0
4.2537068808597258e+00 0.0000000000000000e+00 0.0000000000000000e+00
-3.5968530467123531e-17 4.2537068808597258e+00 0.0000000000000000e+00
-2.5086843902554121e-17 -3.1130736317111765e-17 4.2537068808597258e+00
Mo 
4 
Cartesian
4.2537068808723264e+00 4.2537068808723264e+00 4.2537068808723264e+00
4.2537068808723264e+00 2.1268534404361632e+00 2.1268534404361632e+00
2.1268534404361632e+00 4.2537068808723264e+00 2.1268534404361632e+00
2.1268534404361632e+00 2.1268534404361632e+00 4.2537068808723264e+00
