Mo2 
1.0
3.3598819125684014e+00 0.0000000000000000e+00 0.0000000000000000e+00
-3.1462401966876777e-17 3.3598819125684014e+00 0.0000000000000000e+00
-6.5372153395024558e-18 -4.6483214599979783e-17 3.3598819125684014e+00
Mo 
2 
Cartesian
0.0000000000000000e+00 0.0000000000000000e+00 0.0000000000000000e+00
1.6799409563306584e+00 1.6799409563306584e+00 1.6799409563306584e+00
