Mo4 
1.0
3.3761693887205482e+00 0.0000000000000000e+00 0.0000000000000000e+00
-2.8548241550631057e-17 3.3761693887205482e+00 0.0000000000000000e+00
-1.9911441200738208e-17 -2.4708481789163919e-17 3.3761693887205482e+00
Mo 
4 
Cartesian
3.3761693887305495e+00 3.3761693887305495e+00 3.3761693887305495e+00
3.3761693887305495e+00 1.6880846943652748e+00 1.6880846943652748e+00
1.6880846943652748e+00 3.3761693887305495e+00 1.6880846943652748e+00
1.6880846943652748e+00 1.6880846943652748e+00 3.3761693887305495e+00
