Mo4
1.0
   4.0028914311881421    0.0000000000000000    0.0000000000000000
  -0.0000000000000000    4.0228561008291415    0.0000000000000000
  -0.0000000000000000   -0.0000000000000000    4.0028914311881421
Mo
4
direct
   1.0000000000029623    1.0000000000029623    1.0000000000029623 Mo
   1.0000000000029623    0.5000000000014811    0.5000000000014811 Mo
   0.5000000000014811    1.0000000000029623    0.5000000000014811 Mo
   0.5000000000014811    0.5000000000014811    1.0000000000029623 Mo
