Mo4
1.0
4.002891 0.000000 0.000000
-0.000000 4.002891 0.000000
-0.000000 -0.000000 4.002891
Mo
4
direct
1.000000 1.000000 1.000000 Mo
1.000000 0.500000 0.500000 Mo
0.500000 1.000000 0.500000 Mo
0.500000 0.500000 1.000000 Mo
