Mo2
1.0
   3.1775394564351047    0.0000000000000000    0.0000000000000000
  -0.0000000000000000    3.1617699325125632    0.0000000000000000
  -0.0000000000000000   -0.0000000000000000    3.1617699325125632
Mo
2
direct
   0.0000000000000000    0.0000000000000000    0.0000000000000000 Mo
   0.5000000000138272    0.5000000000138272    0.5000000000138272 Mo
