Mo2 
1.0
2.6667400412500029e+00 0.0000000000000000e+00 0.0000000000000000e+00
-2.4971724989833268e-17 2.6667400412500029e+00 0.0000000000000000e+00
-5.1885912534344233e-18 -3.6893751877435734e-17 2.6667400412500029e+00
Mo 
2 
Cartesian
0.0000000000000000e+00 0.0000000000000000e+00 0.0000000000000000e+00
1.3333700206618750e+00 1.3333700206618750e+00 1.3333700206618750e+00
