Mo2 
1.0
2.9351272026405888e+00 0.0000000000000000e+00 0.0000000000000000e+00
-2.7484939731944457e-17 2.9351272026405888e+00 0.0000000000000000e+00
-5.7107836143638171e-18 -4.0606828212687448e-17 2.9351272026405888e+00
Mo 
2 
Cartesian
0.0000000000000000e+00 0.0000000000000000e+00 0.0000000000000000e+00
1.4675636013608788e+00 1.4675636013608788e+00 1.4675636013608788e+00
